
Gurobi 11.0.3 (linux64) logging started Thu Nov 21 13:29:31 2024

Set parameter LogFile to value "/home/yihong/Coding/OR_SUC/SUC_results_bigM100000_thread4/case24_ieee_rts_theta0.1_epsilon0.05_gurobi_seed260000_num_gen100_N_WDR100_load_scaling_factor1_exact_T8quadra_cost.txt"
Set parameter TimeLimit to value 3600
Gurobi Optimizer version 11.0.3 build v11.0.3rc0 (linux64 - "Ubuntu 20.04.6 LTS")

CPU model: AMD EPYC 7532 32-Core Processor, instruction set [SSE2|AVX|AVX2]
Thread count: 64 physical cores, 128 logical processors, using up to 4 threads

Optimize a model with 18955 rows, 10121 columns and 440954 nonzeros
Model fingerprint: 0x5edc7601
Model has 800 quadratic constraints
Variable types: 9221 continuous, 900 integer (900 binary)
Coefficient statistics:
  Matrix range     [3e-04, 1e+05]
  QMatrix range    [2e-03, 8e-03]
  QLMatrix range   [1e-01, 6e+01]
  Objective range  [1e+00, 1e+00]
  Bounds range     [1e+00, 1e+00]
  RHS range        [1e+00, 1e+05]
Presolve removed 15550 rows and 4412 columns
Presolve time: 0.12s
Presolved: 3405 rows, 5709 columns, 19787 nonzeros
Presolved model has 800 quadratic constraint(s)
Variable types: 4848 continuous, 861 integer (861 binary)

Root relaxation: objective 9.128164e+03, 2536 iterations, 0.04 seconds (0.05 work units)

    Nodes    |    Current Node    |     Objective Bounds      |     Work
 Expl Unexpl |  Obj  Depth IntInf | Incumbent    BestBd   Gap | It/Node Time

     0     0 9128.16441    0   24          - 9128.16441      -     -    0s
     0     0 140619.642    0  241          - 140619.642      -     -    0s
     0     0 140834.280    0  243          - 140834.280      -     -    0s
     0     0 225635.614    0  144          - 225635.614      -     -    0s
     0     0 225702.350    0  145          - 225702.350      -     -    0s
     0     0 225907.407    0   91          - 225907.407      -     -    0s
     0     0 225929.350    0   91          - 225929.350      -     -    0s
     0     0 225932.338    0   90          - 225932.338      -     -    0s
     0     0 225932.673    0   90          - 225932.673      -     -    0s
     0     2 225933.183    0   90          - 225933.183      -     -    0s
H  118   141                    226493.01854 226026.738  0.21%  10.8    1s
*  118   141              38    226493.01854 226026.738  0.21%  10.8    1s
   806   517 226063.886   40   17 226493.019 226040.615  0.20%  23.7    5s
H  868   526                    226472.07195 226045.322  0.19%  23.4    5s
*  868   526              50    226472.07195 226045.322  0.19%  23.4    5s
H 1217   699                    226464.00599 226071.357  0.17%  23.1    6s
* 1217   699              50    226464.00599 226071.357  0.17%  23.1    6s
H 3912  2275                    226378.35162 226071.357  0.14%  18.2    9s
* 3912  2275              51    226378.35162 226071.357  0.14%  18.2    9s
  4343  2496 226113.679   19   36 226378.352 226071.357  0.14%  18.1   10s
  7075  4040 226182.051   22    5 226378.352 226071.357  0.14%  18.5   15s
  9559  5502          -   36      226378.352 226071.357  0.14%  18.8   20s
 12038  6816     cutoff   47      226378.352 226071.357  0.14%  19.2   25s
*13447   678              29    226133.97188 226071.357  0.03%  19.3   28s

Cutting planes:
  Gomory: 12
  Implied bound: 53
  Projected implied bound: 2
  MIR: 54
  Flow cover: 46

Explored 13669 nodes (270401 simplex iterations) in 28.90 seconds (23.22 work units)
Thread count was 4 (of 128 available processors)

Solution count 6: 226134 226134 226378 ... 226493

Optimal solution found (tolerance 1.00e-03)
Warning: max constraint violation (1.2833e-08) exceeds tolerance
Best objective 2.261339718834e+05, best bound 2.260713570628e+05, gap 0.0277%
